0	279	415	0	200
1	185	208	0	200
2	421	193	0	200
3	243	186	0	200
4	479	302	0	200
5	134	194	0	200
6	216	373	0	200
7	253	359	0	200
8	171	36	0	200
9	119	20	0	200
10	76	252	0	200
11	448	230	0	200
12	136	159	0	200
13	386	143	0	200
14	91	281	0	200
15	493	161	0	200
16	115	19	0	200
17	40	422	0	200
18	318	236	0	200
19	20	16	0	200
20	465	483	0	200
21	350	136	0	200
22	179	349	0	200
23	304	314	0	200
24	321	434	0	200
